6506
7508
1134
5466
1398
8376
3302
6389
6635
564
2987
7889
6431
2361
3463
1548
1548
5973
1743
4164
8035
8834
8383
8085
4825
2714
1511
7995
7941
4581
6704
9890
2172
4004
7599
7454
5679
7962
4110
7570
3710
2888
9924
2543
1477
1081
9028
9274
4495
3792
5655
